
Gurobi 10.0.3 (win64, Python) logging started Sat Dec  9 22:45:13 2023

Set parameter Username
Set parameter LogFile to value "gurobi.log"
Academic license - for non-commercial use only - expires 2024-09-16
Read LP format model from file few4.lp
Reading time = 0.04 seconds
: 4897 rows, 928 columns, 21376 nonzeros
Gurobi Optimizer version 10.0.3 build v10.0.3rc0 (win64)

CPU model: Intel(R) Core(TM) i7-8565U CPU @ 1.80GHz, instruction set [SSE2|AVX|AVX2]
Thread count: 4 physical cores, 8 logical processors, using up to 8 threads

Optimize a model with 4897 rows, 928 columns and 21376 nonzeros
Model fingerprint: 0x22a271ce
Variable types: 0 continuous, 928 integer (928 binary)
Coefficient statistics:
  Matrix range     [1e+00, 8e+00]
  Objective range  [2e+00, 3e+00]
  Bounds range     [1e+00, 1e+00]
  RHS range        [1e+00, 7e+00]
Presolve time: 0.04s
Presolved: 4897 rows, 928 columns, 21376 nonzeros
Variable types: 0 continuous, 928 integer (928 binary)

Root relaxation: objective 5.000000e-02, 282 iterations, 0.02 seconds (0.02 work units)

    Nodes    |    Current Node    |     Objective Bounds      |     Work
 Expl Unexpl |  Obj  Depth IntInf | Incumbent    BestBd   Gap | It/Node Time

     0     0    0.05000    0   22          -    0.05000      -     -    0s
H    0     0                      57.0000000    0.05000   100%     -    0s
H    0     0                      32.0000000    0.05000   100%     -    0s
     0     0    2.00000    0  131   32.00000    2.00000  93.7%     -    0s
     0     0    2.00000    0   42   32.00000    2.00000  93.7%     -    0s
     0     0    2.00000    0   42   32.00000    2.00000  93.7%     -    0s
     0     0    2.00000    0  134   32.00000    2.00000  93.7%     -    0s
     0     0    2.00000    0  134   32.00000    2.00000  93.7%     -    0s
     0     0    2.00000    0   58   32.00000    2.00000  93.7%     -    0s
     0     0    2.02857    0  252   32.00000    2.02857  93.7%     -    0s
H    0     0                      31.0000000    2.02857  93.5%     -    1s
     0     0    2.07708    0  140   31.00000    2.07708  93.3%     -    1s
H    0     0                      17.0000000    2.07708  87.8%     -    1s
     0     0    2.07708    0   65   17.00000    2.07708  87.8%     -    1s
     0     0    2.13089    0   38   17.00000    2.13089  87.5%     -    1s
     0     0    2.13089    0   38   17.00000    2.13089  87.5%     -    1s
     0     2    3.00000    0   38   17.00000    3.00000  82.4%     -    1s
H   31    34                      16.0000000    3.00000  81.3%   192    2s
H   79    53                      15.0000000    3.00000  80.0%   132    2s
H 1140   351                      12.0000000    3.00000  75.0%   115    5s
  3097   682    8.07143   17   97   12.00000    4.94169  58.8%   121   10s
  4286   810    6.21281   14  585   12.00000    6.21281  48.2%   133   15s
  4683   837   10.36818   23  506   12.00000    6.21281  48.2%   150   20s
  5036   869    6.60985   25  484   12.00000    6.21281  48.2%   162   25s
  5506   858   10.66667   29  331   12.00000    6.21281  48.2%   166   30s
  5941   778     cutoff   34        12.00000    6.21281  48.2%   169   35s
  6508   715     cutoff   23        12.00000    6.21281  48.2%   172   40s
  7112   816    8.21596   22  570   12.00000    6.21281  48.2%   178   45s
  7851   960    8.22991   25  543   12.00000    6.21281  48.2%   179   51s
  8535  1050     cutoff   23        12.00000    6.21281  48.2%   181   55s
  9823  1148    8.35723   18  530   12.00000    6.38197  46.8%   178   61s
 10362  1194    6.77387   23  416   12.00000    6.50895  45.8%   177   65s
 10445  1257    6.50895   36  422   12.00000    6.50895  45.8%   183   70s
 10606  1279     cutoff   45        12.00000    6.50895  45.8%   187   75s
 10857  1287   10.40000   59  240   12.00000    6.50895  45.8%   188   80s
 11076  1296    7.74615   33  394   12.00000    6.50895  45.8%   189   85s
 11312  1305    9.36738   41  352   12.00000    6.50895  45.8%   191   90s
 11868  1275 infeasible   57        12.00000    6.50895  45.8%   191   95s
 12560  1205   11.00000   56  143   12.00000    6.50895  45.8%   194  100s
 13251  1158   10.80365   35  453   12.00000    6.50895  45.8%   197  106s
 13802  1042   10.00000   72  141   12.00000    6.50895  45.8%   198  110s
 14508  1171     cutoff   37        12.00000    6.50895  45.8%   199  116s
 15262  1326     cutoff   39        12.00000    6.50895  45.8%   201  120s
 16141  1496    9.93319   36  403   12.00000    6.55365  45.4%   202  125s
 16970  1660   10.45000   61  264   12.00000    6.80000  43.3%   204  131s
 17660  1729    8.84817   33  302   12.00000    6.93833  42.2%   204  137s
 18345  1891   10.42831   42  451   12.00000    7.06477  41.1%   205  141s
 19143  2019    9.25102   36  344   12.00000    7.17066  40.2%   206  146s
 20037  2156     cutoff   37        12.00000    7.33333  38.9%   207  151s
 20583  2206   10.84058   35  297   12.00000    7.43016  38.1%   207  155s
 21342  2302   10.67460   39  292   12.00000    7.55083  37.1%   208  160s
 22265  2369    9.72815   35  344   12.00000    7.71071  35.7%   209  165s
 23209  2388    8.82367   35  426   12.00000    7.89332  34.2%   209  170s
 24282  2450    9.58824   42  420   12.00000    8.00631  33.3%   208  175s
 25650  2509    8.32353   34  165   12.00000    8.16667  31.9%   207  181s
 26521  2516    9.78174   36  340   12.00000    8.24242  31.3%   207  186s
 27216  2541   10.00000   55  171   12.00000    8.32671  30.6%   207  190s
 28224  2540     cutoff   37        12.00000    8.43578  29.7%   206  195s
 29497  2581   10.69344   38  369   12.00000    8.53472  28.9%   205  201s
 30341  2552     cutoff   32        12.00000    8.66067  27.8%   204  205s
 31656  2497   11.00000   39  177   12.00000    8.76768  26.9%   204  211s
 32518  2413   10.75195   41  367   12.00000    8.86651  26.1%   203  216s
 33485  2305     cutoff   37        12.00000    9.00000  25.0%   203  220s
 34830  2175     cutoff   34        12.00000    9.09985  24.2%   202  226s
 35628  2060   10.78571   62  161   12.00000    9.18057  23.5%   201  230s
 37027  1873     cutoff   37        12.00000    9.34944  22.1%   200  237s
 37763  1683   10.67655   37  296   12.00000    9.46667  21.1%   199  241s
 38756  1408   11.00000   35  156   12.00000    9.64384  19.6%   198  245s
 40239   995     cutoff   33        12.00000    9.98266  16.8%   196  251s
 41369   679     cutoff   41        12.00000   10.10609  15.8%   195  255s

Cutting planes:
  Gomory: 1
  MIR: 7
  Inf proof: 3

Explored 43135 nodes (8240293 simplex iterations) in 259.42 seconds (342.89 work units)
Thread count was 8 (of 8 available processors)

Solution count 7: 12 15 16 ... 57

Optimal solution found (tolerance 1.00e-04)
Best objective 1.200000000000e+01, best bound 1.200000000000e+01, gap 0.0000%

    Variable            X 
-------------------------
      Q2_0_5            1 
      Q2_2_5            1 
      Q2_3_2            1 
      Q2_3_3            1 
      Q2_3_4            1 
      Q2_3_5            1 
         L16            1 
         L17            1 
         L18            1 
         L19            1 
         L21            1 
         L24            1 
         L26            1 
         L27            1 
         L28            1 
         L30            1 
         L31            1 
       X0_21            1 
       X0_22            1 
       X0_23            1 
       Y0_21            1 
       Y0_22            1 
       Y0_23            1 
       X2_21            1 
       Y2_20            1 
       X2_22            1 
       X2_23            1 
        X3_9            1 
        Y3_8            1 
        Y3_9            1 
       Y3_10            1 
       Y3_11            1 
       X3_13            1 
       Y3_12            1 
       Y3_13            1 
       Y3_14            1 
       Y3_15            1 
       X3_16            1 
       Y3_16            1 
       Y3_18            1 
       X3_20            1 
       X3_21            1 
       Y3_22            1 
        Q0_5            1 
        Q2_5            1 
        Q3_2            1 
        Q3_3            1 
        Q3_4            1 
        Q3_5            1 
       U0_16            1 
       V0_16            1 
       Z0_16            1 
       T0_17            1 
       U0_17            1 
       V0_17            1 
       Z0_17            1 
       T0_18            1 
       U0_18            1 
       V0_18            1 
       Z0_18            1 
       T0_19            1 
       U0_19            1 
       V0_19            1 
       Z0_19            1 
       T0_21            1 
       U0_21            1 
       V0_21            1 
       Z0_21            1 
       T0_22            1 
       U0_22            1 
       V0_22            1 
       T0_23            1 
       U0_23            1 
       V0_23            1 
       Z0_24            1 
       V0_26            1 
       Z0_26            1 
       V0_27            1 
       Z0_27            1 
       V0_28            1 
       Z0_28            1 
       U0_30            1 
       V0_30            1 
       Z0_30            1 
       U0_31            1 
       V0_31            1 
       Z0_31            1 
       T2_16            1 
       U2_16            1 
       V2_16            1 
       Z2_16            1 
       T2_20            1 
       U2_20            1 
       V2_20            1 
       Z2_20            1 
       Z2_21            1 
       V2_25            1 
       Z2_25            1 
       U2_29            1 
       V2_29            1 
       Z2_29            1 
        V3_0            1 
        V3_1            1 
        V3_2            1 
        U3_3            1 
        Z3_3            1 
        U3_4            1 
        U3_5            1 
        U3_6            1 
        T3_7            1 
        U3_8            1 
        V3_8            1 
        Z3_8            1 
        U3_9            1 
        V3_9            1 
        Z3_9            1 
       U3_10            1 
       V3_10            1 
       Z3_10            1 
       Z3_12            1 
       Z3_13            1 
       Z3_14            1 
       T3_15            1 
       U3_15            1 
       Z3_15            1 
       T3_16            1 
       U3_16            1 
       V3_16            1 
       Z3_16            1 
       Z3_17            1 
       Z3_19            1 
       V3_21            1 
       Z3_21            1 
       T3_22            1 
       U3_22            1 
       V3_22            1 
       Z3_22            1 
       V3_23            1 
       U3_25            1 
       V3_25            1 
       Z3_25            1 
       U3_27            1 
       T3_28            1 
       U3_28            1 
       V3_28            1 
       Z3_28            1 
       T3_30            1 
       U3_30            1 
       V3_30            1 
       Z3_30            1 
       U3_31            1 
       V3_31            1 
       Z3_31            1 
        X4_3            1 
       X4_24            1 
       X4_25            1 
       X4_26            1 
       X4_28            1 
       X4_29            1 
       X4_30            1 
       X4_31            1 
       X4_16            1 
       X4_17            1 
       X4_19            1 
       X4_23            1 
        X4_9            1 
       X4_12            1 
       X4_14            1 
       X4_15            1 
